jobs  (incl. supersource/sink ):	52
RESOURCES
- renewable                 : 4 R
- nonrenewable              : 2 N
- doubly constrained        : 0 D
************************************************************************
PRECEDENCE RELATIONS:
jobnr.    #modes  #successors   successors
1	1	21		2 3 4 5 6 7 8 9 10 11 12 13 14 15 17 19 20 22 24 33 35 
2	6	10		51 50 49 41 32 31 29 25 18 16 
3	6	8		50 49 31 30 29 28 27 16 
4	6	12		51 50 48 47 45 44 43 30 29 25 23 21 
5	6	11		49 48 47 46 44 43 41 34 30 29 23 
6	6	7		51 49 47 41 34 29 16 
7	6	9		49 48 46 44 31 30 29 27 26 
8	6	6		51 50 47 45 29 16 
9	6	10		51 49 46 44 43 42 41 40 34 25 
10	6	6		45 43 41 32 23 18 
11	6	9		49 44 42 41 40 39 32 31 30 
12	6	8		51 48 43 41 37 34 29 23 
13	6	7		46 42 40 39 38 31 26 
14	6	7		50 47 44 43 41 40 25 
15	6	6		48 46 44 37 29 23 
16	6	5		48 46 43 37 23 
17	6	7		50 46 45 43 39 38 30 
18	6	7		47 44 42 39 38 37 36 
19	6	4		47 45 39 27 
20	6	3		45 41 25 
21	6	6		46 41 40 38 37 36 
22	6	4		45 42 39 30 
23	6	5		42 40 39 38 36 
24	6	5		47 44 41 37 36 
25	6	4		39 38 37 36 
26	6	4		43 41 37 36 
27	6	3		41 38 37 
28	6	3		44 40 37 
29	6	2		40 36 
30	6	2		37 36 
31	6	2		45 37 
32	6	2		38 36 
33	6	2		44 36 
34	6	1		36 
35	6	1		42 
36	6	1		52 
37	6	1		52 
38	6	1		52 
39	6	1		52 
40	6	1		52 
41	6	1		52 
42	6	1		52 
43	6	1		52 
44	6	1		52 
45	6	1		52 
46	6	1		52 
47	6	1		52 
48	6	1		52 
49	6	1		52 
50	6	1		52 
51	6	1		52 
52	1	0		
************************************************************************
REQUESTS/DURATIONS
jobnr.	mode	dur	R1	R2	R3	R4	N1	N2	
------------------------------------------------------------------------
1	1	0	0	0	0	0	0	0	
2	1	6	4	4	5	3	16	29	
	2	14	4	3	4	3	12	21	
	3	17	4	3	4	3	11	18	
	4	21	3	3	3	3	8	13	
	5	24	3	3	3	3	6	10	
	6	30	3	3	2	3	4	4	
3	1	4	4	3	3	4	28	18	
	2	5	3	3	3	3	26	15	
	3	13	3	3	3	3	23	13	
	4	16	2	3	3	3	22	8	
	5	21	2	3	3	3	17	8	
	6	28	1	3	3	3	16	5	
4	1	9	3	4	3	4	20	10	
	2	17	3	3	3	4	18	8	
	3	20	3	3	3	4	17	7	
	4	25	2	3	3	4	14	6	
	5	27	2	3	2	4	13	6	
	6	28	2	3	2	4	10	5	
5	1	5	3	4	5	3	15	15	
	2	8	3	4	4	2	12	13	
	3	15	3	4	3	2	10	12	
	4	17	3	4	2	2	7	11	
	5	20	3	3	2	2	4	10	
	6	22	3	3	1	2	1	10	
6	1	4	4	4	2	3	13	26	
	2	10	4	4	2	3	12	23	
	3	15	4	3	2	3	12	21	
	4	16	3	3	2	3	12	18	
	5	21	3	2	1	3	12	12	
	6	29	3	2	1	3	12	9	
7	1	5	4	3	3	3	11	10	
	2	9	3	3	3	3	10	8	
	3	10	3	3	3	3	10	6	
	4	19	2	2	2	3	10	6	
	5	20	1	2	2	3	10	3	
	6	30	1	2	1	3	10	3	
8	1	7	3	2	1	5	3	9	
	2	8	3	1	1	4	3	9	
	3	12	3	1	1	4	3	8	
	4	13	3	1	1	4	3	6	
	5	25	3	1	1	3	3	5	
	6	29	3	1	1	3	3	4	
9	1	1	3	3	2	2	28	22	
	2	9	3	3	1	2	27	22	
	3	10	3	3	1	2	26	20	
	4	11	2	3	1	2	26	19	
	5	19	1	3	1	2	25	19	
	6	22	1	3	1	2	25	18	
10	1	14	4	5	4	4	5	23	
	2	19	3	3	4	3	4	19	
	3	20	3	3	4	3	4	16	
	4	21	3	2	3	3	4	14	
	5	27	3	1	3	3	3	14	
	6	28	3	1	3	3	3	10	
11	1	4	5	4	1	4	13	14	
	2	5	3	3	1	3	12	13	
	3	6	3	3	1	3	10	12	
	4	12	2	3	1	2	9	12	
	5	23	2	2	1	2	8	12	
	6	30	1	2	1	1	8	11	
12	1	11	2	4	2	4	21	16	
	2	12	1	3	1	4	19	16	
	3	13	1	3	1	4	16	16	
	4	17	1	3	1	4	14	16	
	5	19	1	3	1	4	13	16	
	6	21	1	3	1	4	12	16	
13	1	1	5	3	2	5	22	16	
	2	6	4	3	1	4	17	16	
	3	9	4	3	1	4	16	16	
	4	17	4	3	1	3	13	16	
	5	25	4	3	1	3	12	16	
	6	26	4	3	1	2	9	16	
14	1	1	4	2	4	3	24	24	
	2	3	4	2	4	3	21	22	
	3	14	4	2	4	3	20	22	
	4	27	4	2	4	3	14	21	
	5	28	3	1	4	2	14	21	
	6	29	3	1	4	2	9	20	
15	1	4	5	5	2	3	28	27	
	2	5	4	3	2	2	27	26	
	3	8	4	3	2	2	27	25	
	4	12	4	3	2	2	27	24	
	5	18	3	1	1	2	27	25	
	6	28	3	1	1	2	27	24	
16	1	1	4	3	2	1	26	14	
	2	7	4	3	2	1	20	13	
	3	9	4	3	2	1	16	11	
	4	16	4	2	2	1	13	6	
	5	21	3	1	1	1	10	3	
	6	24	3	1	1	1	7	2	
17	1	6	2	4	4	4	10	6	
	2	15	2	4	3	3	9	6	
	3	16	2	4	3	3	9	4	
	4	22	2	3	3	3	8	3	
	5	23	2	2	2	3	7	2	
	6	30	2	2	2	3	6	2	
18	1	2	5	1	4	3	14	26	
	2	4	4	1	4	3	13	25	
	3	5	4	1	4	3	12	24	
	4	9	3	1	4	3	11	23	
	5	21	3	1	4	3	10	22	
	6	27	2	1	4	3	10	21	
19	1	11	1	4	4	5	29	27	
	2	12	1	3	3	4	23	23	
	3	14	1	2	3	4	20	20	
	4	18	1	2	2	3	16	15	
	5	22	1	1	2	3	14	14	
	6	30	1	1	2	3	8	8	
20	1	4	1	5	4	3	4	21	
	2	10	1	4	4	3	4	17	
	3	12	1	4	4	3	4	13	
	4	16	1	4	3	3	4	10	
	5	17	1	4	3	3	4	9	
	6	26	1	4	3	3	4	5	
21	1	1	3	2	3	5	26	4	
	2	13	2	1	3	4	23	3	
	3	19	2	1	3	3	18	3	
	4	22	2	1	3	3	17	2	
	5	23	1	1	3	1	16	1	
	6	29	1	1	3	1	11	1	
22	1	2	2	4	2	1	25	16	
	2	6	2	4	2	1	22	15	
	3	10	2	4	2	1	18	14	
	4	11	2	4	2	1	14	14	
	5	15	2	3	2	1	11	13	
	6	16	2	3	2	1	7	12	
23	1	2	5	4	4	3	27	9	
	2	7	4	4	4	3	27	9	
	3	12	4	3	4	3	27	9	
	4	15	3	2	3	3	27	8	
	5	17	3	2	3	2	27	8	
	6	27	3	1	2	2	27	7	
24	1	11	1	3	1	5	3	27	
	2	14	1	3	1	4	3	26	
	3	15	1	3	1	4	3	24	
	4	20	1	2	1	4	3	22	
	5	25	1	1	1	3	3	21	
	6	30	1	1	1	3	3	17	
25	1	22	5	3	2	2	5	18	
	2	23	4	3	2	2	5	17	
	3	24	3	3	2	2	5	16	
	4	25	3	3	1	2	5	14	
	5	26	3	3	1	2	5	13	
	6	28	2	3	1	2	5	13	
26	1	1	3	5	1	4	25	13	
	2	2	3	4	1	3	23	13	
	3	4	3	3	1	3	23	13	
	4	8	3	3	1	2	21	13	
	5	14	3	1	1	1	21	13	
	6	17	3	1	1	1	19	13	
27	1	1	4	4	4	3	17	8	
	2	4	4	4	3	2	13	6	
	3	9	4	4	3	2	10	6	
	4	18	4	3	3	1	7	5	
	5	21	4	3	2	1	4	4	
	6	29	4	3	2	1	1	4	
28	1	9	2	3	4	2	9	26	
	2	13	2	3	4	2	8	26	
	3	16	2	3	4	2	6	26	
	4	19	2	3	4	2	5	26	
	5	21	2	2	3	2	4	26	
	6	25	2	2	3	2	4	25	
29	1	4	3	2	3	5	12	25	
	2	11	3	1	3	5	11	22	
	3	15	3	1	3	5	8	20	
	4	17	2	1	3	5	8	18	
	5	18	2	1	3	5	4	14	
	6	25	2	1	3	5	3	13	
30	1	11	1	4	4	2	19	24	
	2	21	1	4	4	2	19	22	
	3	22	1	4	4	2	19	19	
	4	24	1	4	4	2	19	18	
	5	26	1	3	4	2	19	17	
	6	29	1	3	4	2	19	16	
31	1	2	5	5	5	5	8	4	
	2	9	5	3	4	4	7	3	
	3	11	5	3	4	3	7	3	
	4	12	5	3	4	2	7	2	
	5	17	5	1	4	2	7	2	
	6	21	5	1	4	1	7	2	
32	1	8	3	4	4	3	12	28	
	2	12	2	3	4	2	12	28	
	3	13	2	3	4	2	12	27	
	4	14	2	2	4	2	12	25	
	5	15	2	2	4	1	12	24	
	6	24	2	1	4	1	12	23	
33	1	4	5	2	4	5	11	25	
	2	10	4	2	4	3	9	24	
	3	15	4	2	3	3	8	22	
	4	26	4	2	3	3	8	20	
	5	28	3	2	2	1	5	17	
	6	29	3	2	1	1	4	16	
34	1	5	2	3	2	2	29	21	
	2	12	1	3	2	2	25	20	
	3	14	1	3	2	2	25	19	
	4	15	1	2	2	2	24	19	
	5	16	1	2	2	1	20	17	
	6	25	1	2	2	1	19	16	
35	1	3	3	4	4	2	8	25	
	2	21	3	4	4	2	8	21	
	3	22	2	4	4	2	7	13	
	4	23	2	3	4	1	5	9	
	5	26	1	3	4	1	4	6	
	6	27	1	3	4	1	4	3	
36	1	1	5	4	2	1	19	17	
	2	7	4	4	2	1	16	17	
	3	12	4	3	2	1	16	17	
	4	15	4	3	1	1	12	16	
	5	24	4	3	1	1	10	16	
	6	28	4	2	1	1	6	15	
37	1	10	4	4	3	5	16	27	
	2	14	3	3	3	5	15	27	
	3	25	3	2	3	5	14	25	
	4	26	3	2	3	5	12	23	
	5	28	3	1	3	5	10	20	
	6	29	3	1	3	5	9	20	
38	1	1	3	4	3	4	19	9	
	2	8	3	4	3	3	16	9	
	3	13	3	4	3	3	11	8	
	4	14	3	4	3	3	7	8	
	5	23	3	4	3	2	7	6	
	6	30	3	4	3	2	1	6	
39	1	5	2	5	4	3	29	16	
	2	7	2	4	3	2	29	15	
	3	18	2	3	3	2	29	14	
	4	26	2	3	3	2	29	13	
	5	28	2	3	2	1	29	11	
	6	30	2	2	2	1	29	11	
40	1	11	3	4	3	4	21	1	
	2	12	3	4	3	3	18	1	
	3	21	3	4	3	3	16	1	
	4	23	2	4	3	2	16	1	
	5	25	2	4	2	1	14	1	
	6	26	2	4	2	1	11	1	
41	1	9	4	5	2	4	16	28	
	2	19	3	5	2	4	16	27	
	3	22	3	5	2	4	14	26	
	4	23	3	5	2	3	14	26	
	5	25	3	5	2	3	11	26	
	6	28	3	5	2	3	10	25	
42	1	2	4	2	3	5	19	18	
	2	7	4	2	3	4	17	12	
	3	14	4	2	3	4	15	11	
	4	15	3	2	3	3	13	8	
	5	22	3	2	3	3	7	6	
	6	24	3	2	3	3	7	3	
43	1	8	1	3	4	3	28	29	
	2	10	1	2	4	3	20	29	
	3	14	1	2	4	3	20	28	
	4	22	1	2	4	3	13	29	
	5	29	1	2	4	3	8	29	
	6	30	1	2	4	3	4	29	
44	1	2	4	2	4	4	30	25	
	2	3	3	1	4	4	29	24	
	3	9	3	1	4	3	28	24	
	4	13	3	1	4	2	28	23	
	5	16	3	1	4	1	27	23	
	6	29	3	1	4	1	27	22	
45	1	1	4	1	4	2	15	28	
	2	2	4	1	3	2	15	27	
	3	9	4	1	3	2	14	26	
	4	12	3	1	3	2	12	26	
	5	18	3	1	3	2	11	25	
	6	19	2	1	3	2	11	25	
46	1	2	5	5	4	3	7	16	
	2	7	5	4	3	2	6	15	
	3	8	5	3	3	2	5	10	
	4	15	5	3	2	2	5	6	
	5	17	5	2	2	2	4	6	
	6	22	5	2	2	2	4	1	
47	1	3	5	4	4	5	22	20	
	2	4	4	3	4	5	21	18	
	3	6	4	3	4	5	20	16	
	4	16	4	2	4	5	18	11	
	5	19	3	2	4	5	16	9	
	6	25	3	2	4	5	16	6	
48	1	4	2	1	3	3	21	24	
	2	21	1	1	2	3	21	23	
	3	22	1	1	2	3	21	22	
	4	23	1	1	1	3	21	22	
	5	25	1	1	1	3	21	19	
	6	26	1	1	1	3	21	18	
49	1	12	5	3	5	4	29	26	
	2	13	4	3	4	4	25	21	
	3	16	4	3	4	4	19	20	
	4	19	3	3	4	3	18	11	
	5	28	3	3	3	2	15	9	
	6	30	2	3	3	2	10	6	
50	1	3	2	3	4	3	19	13	
	2	4	2	3	4	2	17	11	
	3	13	2	3	4	2	15	8	
	4	17	2	3	4	2	14	7	
	5	21	1	3	4	2	12	5	
	6	30	1	3	4	2	10	5	
51	1	2	2	4	3	4	25	18	
	2	3	2	4	3	4	21	17	
	3	16	2	3	3	4	17	17	
	4	22	2	3	3	4	12	17	
	5	27	2	3	3	4	12	16	
	6	29	2	2	3	4	4	17	
52	1	0	0	0	0	0	0	0	
************************************************************************

 RESOURCE AVAILABILITIES 
	R 1	R 2	R 3	R 4	N 1	N 2
	136	138	139	136	607	674

************************************************************************
